NAME 
ROWS
 N  OBJ
 L  R0      
 E  R1      
 E  R2      
 E  R3      
 E  R4      
 E  R5      
COLUMNS
    MARKER    'MARKER'                 'INTORG'
    I0(4)     OBJ       146
    I0(4)     R0        127
    I0(4)     R1        8
    I0(4)     R2        12
    I0(4)     R5        1
    I1(4)     OBJ       121
    I1(4)     R0        133
    I1(4)     R1        1
    I1(4)     R2        5
    I1(4)     R5        1
    MARKER    'MARKER'                 'INTEND'
    C2(4)     OBJ       7
    C2(4)     R0        3
    C2(4)     R1        9
    C2(4)     R3        13
    C2(4)     R4        1
    C3(2)     OBJ       4
    C3(2)     R0        7
    C3(2)     R1        17
    C4(3)     OBJ       -2
    C4(3)     R0        7
    C4(3)     R1        18
    C4(3)     R4        9
    C5(1)     R1        1
    C6(1)     R2        1
    C7(1)     R3        1
    C8(1)     R4        1
    C9(1)     R5        1
RHS
    RHS1      R0        3.0722222222222225e+01
    RHS1      R1        79
    RHS1      R2        55
    RHS1      R3        87
    RHS1      R4        66
BOUNDS
 UP BND1      I0(4)     2
 UP BND1      I1(4)     2
ENDATA
